data/lp_files/q3/43_8.lp
\ Model foo
\ LP format - for model browsing. Use MPS format to capture full model detail.
Minimize
  z
Subject To
 allocateEach[1]: x[1,1] + x[2,1] + x[3,1] = 1
 allocateEach[2]: x[1,2] + x[2,2] + x[3,2] = 1
 allocateEach[3]: x[1,3] + x[2,3] + x[3,3] = 1
 allocateAllCash: cashProportion[1] + cashProportion[2] + cashProportion[3]
   = 1
 findWorstP[1,2]: z + 0.2493454681461164 cashProportion[1]
   - 0.2493454681461164 cashProportion[2] + 0.2966587707268419 x[1,1]
   + 0.2737189876573993 x[1,2] + 0.1802767734696422 x[1,3]
   - 0.2966587707268419 x[2,1] - 0.2737189876573993 x[2,2]
   - 0.1802767734696422 x[2,3] >= 0
 findWorstP[1,3]: z + 0.2493454681461164 cashProportion[1]
   - 0.2493454681461164 cashProportion[3] + 0.2966587707268419 x[1,1]
   + 0.2737189876573993 x[1,2] + 0.1802767734696422 x[1,3]
   - 0.2966587707268419 x[3,1] - 0.2737189876573993 x[3,2]
   - 0.1802767734696422 x[3,3] >= 0
 findWorstP[2,1]: z - 0.3172085646312451 cashProportion[1]
   + 0.3172085646312451 cashProportion[2] - 0.0101506740681998 x[1,1]
   - 0.3432196669310071 x[1,2] - 0.329421094369548 x[1,3]
   + 0.0101506740681998 x[2,1] + 0.3432196669310071 x[2,2]
   + 0.329421094369548 x[2,3] >= 0
 findWorstP[2,3]: z + 0.3172085646312451 cashProportion[2]
   - 0.3172085646312451 cashProportion[3] + 0.0101506740681998 x[2,1]
   + 0.3432196669310071 x[2,2] + 0.329421094369548 x[2,3]
   - 0.0101506740681998 x[3,1] - 0.3432196669310071 x[3,2]
   - 0.329421094369548 x[3,3] >= 0
 findWorstP[3,1]: z - 0.3547671840354767 cashProportion[1]
   + 0.3547671840354767 cashProportion[3] - 0.1608425720620842 x[1,1]
   - 0.2833259423503325 x[1,2] - 0.2010643015521064 x[1,3]
   + 0.1608425720620842 x[3,1] + 0.2833259423503325 x[3,2]
   + 0.2010643015521064 x[3,3] >= 0
 findWorstP[3,2]: z - 0.3547671840354767 cashProportion[2]
   + 0.3547671840354767 cashProportion[3] - 0.1608425720620842 x[2,1]
   - 0.2833259423503325 x[2,2] - 0.2010643015521064 x[2,3]
   + 0.1608425720620842 x[3,1] + 0.2833259423503325 x[3,2]
   + 0.2010643015521064 x[3,3] >= 0
Bounds
 z <= 1
 -infinity <= cashProportion[1] <= 1
 -infinity <= cashProportion[2] <= 1
 -infinity <= cashProportion[3] <= 1
Binaries
 x[1,1] x[1,2] x[1,3] x[2,1] x[2,2] x[2,3] x[3,1] x[3,2] x[3,3]
End
